Minimize
 obj: 0 x1 + 0 x2 + 0 x3 + 0 x4
Subject To
 a: 1 x1 + 0 x2 + 2 x3 + 2 x4 >= 1
 b: 0 x1 - 1 x2 + 3 x3 + 2 x4 >= 1
 c: 2 x1 + 1 x2 - 1 x3 + 1 x4 >= 1
 d: 3 x1 + 0 x2 + 0 x3 + 0.5 x4 >= 1
 e: 2 x1 + 0 x2 + 0 x3 + 2 x4 <= -1
 f: 0 x1 + 1.732 x2 + 1 x3 + 3 x4 <= -1
 g: 4 x1 - 1 x2 + 0 x3 + 0.5 x4 <= -1
 h: -1 x1 + 2.718 x2 + 0 x3 + 3.1 x4 <= -1
 i: x1 >= 0
 j: x2 >= 0
 k: x3 >= 0
 l: x4 >= 0

General
  x1
  x2
  x3
  x4
End